
Gurobi 9.5.0 (linux64) logging started Sat Nov  4 17:02:07 2023

Set parameter LogFile to value "/lustre1/scratch/348/vsc34888/JointResearch/05.Models/06.Benchmarking/D.Representative_days_based_on_RES_and_Demand/RTS24_ByStages_nc90/openStarNet_RTS24_ByStages_nc90.log"
Set parameter Method to value 2
Set parameter MIPFocus to value 1
Set parameter Presolve to value 2
Set parameter RINS to value 100
Set parameter MIPGap to value 0.01
Set parameter Threads to value 36
Set parameter TimeLimit to value 604800
Set parameter IterationLimit to value 760000000
Gurobi Optimizer version 9.5.0 build v9.5.0rc5 (linux64)
Thread count: 36 physical cores, 36 logical processors, using up to 36 threads
Optimize a model with 42048 rows, 23693 columns and 110695 nonzeros
Model fingerprint: 0x5637a6be
Variable types: 23654 continuous, 39 integer (39 binary)
Coefficient statistics:
  Matrix range     [1e-03, 2e+03]
  Objective range  [1e+00, 1e+00]
  Bounds range     [4e-04, 3e+00]
  RHS range        [4e-04, 3e+00]
Presolve removed 21528 rows and 10475 columns
Presolve time: 0.21s
Presolved: 20520 rows, 13218 columns, 71409 nonzeros
Variable types: 13179 continuous, 39 integer (39 binary)
Found heuristic solution: objective 59.0661161
Root relaxation presolved: 20520 rows, 13218 columns, 71409 nonzeros

Root barrier log...

Ordering time: 0.01s

Barrier statistics:
 Dense cols : 39
 AA' NZ     : 1.518e+05
 Factor NZ  : 5.088e+05 (roughly 18 MB of memory)
 Factor Ops : 1.602e+07 (less than 1 second per iteration)
 Threads    : 36

                  Objective                Residual
Iter       Primal          Dual         Primal    Dual     Compl     Time
   0   6.16793100e+05 -8.85103199e+07  4.49e+00 2.63e+02  6.13e+03     0s
   1   6.95022693e+04 -2.38369675e+07  4.30e-01 5.24e-09  7.94e+02     1s
   2   1.74015844e+04 -3.53019867e+06  1.19e-02 2.38e-09  8.69e+01     1s
   3   1.13654774e+04 -5.06552725e+05  1.03e-05 3.00e-10  1.24e+01     1s
   4   4.40004201e+03 -5.18984443e+04  1.33e-07 2.41e-11  1.35e+00     1s
   5   1.08343475e+03 -1.65451532e+04  2.53e-08 7.06e-12  4.22e-01     1s
   6   3.37803585e+02 -4.73128285e+03  2.70e-09 1.84e-12  1.21e-01     1s
   7   2.61781187e+02 -1.40602581e+03  1.41e-09 9.09e-13  4.00e-02     1s
   8   1.39762806e+02 -3.87400659e+02  1.23e-10 9.09e-13  1.26e-02     1s
   9   1.10552029e+02 -1.07831024e+02  6.23e-11 9.09e-13  5.23e-03     1s
  10   6.86111072e+01 -2.35479825e+01  1.67e-11 9.09e-13  2.21e-03     1s
  11   5.18974646e+01  3.16579476e+01  4.32e-12 1.82e-12  4.85e-04     1s
  12   4.90464265e+01  3.79586462e+01  2.78e-12 9.09e-13  2.66e-04     1s
  13   4.73416784e+01  4.04834829e+01  1.93e-12 9.09e-13  1.64e-04     1s
  14   4.60626735e+01  4.21954813e+01  4.62e-12 9.09e-13  9.27e-05     1s
  15   4.50339904e+01  4.30646098e+01  1.16e-11 9.09e-13  4.72e-05     1s
  16   4.45636815e+01  4.35063229e+01  8.04e-12 9.09e-13  2.53e-05     1s
  17   4.43362162e+01  4.38497221e+01  4.48e-12 9.09e-13  1.17e-05     1s
  18   4.41183307e+01  4.40419382e+01  5.29e-12 1.82e-12  1.83e-06     1s
  19   4.40733614e+01  4.40666042e+01  8.28e-11 1.82e-12  1.62e-07     1s
  20   4.40697195e+01  4.40697127e+01  3.22e-11 1.36e-12  1.62e-10     1s
  21   4.40697158e+01  4.40697158e+01  2.58e-11 1.82e-12  1.62e-13     1s

Barrier solved model in 21 iterations and 0.79 seconds (0.70 work units)
Optimal objective 4.40697158e+01


Root relaxation: objective 4.406972e+01, 1453 iterations, 0.50 seconds (0.30 work units)

    Nodes    |    Current Node    |     Objective Bounds      |     Work
 Expl Unexpl |  Obj  Depth IntInf | Incumbent    BestBd   Gap | It/Node Time

     0     0   44.06972    0    7   59.06612   44.06972  25.4%     -    0s
H    0     0                      54.8857231   44.06972  19.7%     -    1s
     0     0   44.91512    0    8   54.88572   44.91512  18.2%     -    1s
H    0     0                      54.8831394   44.91512  18.2%     -    1s
     0     0   44.92612    0    8   54.88314   44.92612  18.1%     -    1s
     0     0   45.97219    0    8   54.88314   45.97219  16.2%     -    2s
     0     0   46.08730    0    8   54.88314   46.08730  16.0%     -    2s
     0     0   46.73630    0    9   54.88314   46.73630  14.8%     -    2s
     0     0   46.73630    0    9   54.88314   46.73630  14.8%     -    2s
     0     0   46.73630    0    9   54.88314   46.73630  14.8%     -    2s
     0     0   46.73630    0    8   54.88314   46.73630  14.8%     -    2s
     0     0   46.73630    0    8   54.88314   46.73630  14.8%     -    2s
H    0     0                      53.9162552   46.73630  13.3%     -    3s
     0     0   47.46635    0   11   53.91626   47.46635  12.0%     -    3s
     0     0   47.60618    0   11   53.91626   47.60618  11.7%     -    3s
     0     0   47.60618    0   11   53.91626   47.60618  11.7%     -    3s
H    0     0                      53.8639126   47.81184  11.2%     -    3s
     0     0   47.81184    0   11   53.86391   47.81184  11.2%     -    3s
     0     0   47.81184    0   11   53.86391   47.81184  11.2%     -    3s
     0     0   47.81184    0   11   53.86391   47.81184  11.2%     -    3s
     0     0   47.81184    0   11   53.86391   47.81184  11.2%     -    3s
     0     0   47.81184    0   11   53.86391   47.81184  11.2%     -    3s
     0     0   47.84506    0   10   53.86391   47.84506  11.2%     -    4s
     0     0   47.84506    0   10   53.86391   47.84506  11.2%     -    4s
     0     0   47.84506    0   10   53.86391   47.84506  11.2%     -    4s
     0     0   47.87438    0   10   53.86391   47.87438  11.1%     -    5s
H    0     0                      52.6630200   47.87438  9.09%     -   12s
     0     2   47.87438    0   10   52.66302   47.87438  9.09%     -   13s
   117    30   51.98112    9    2   52.66302   51.07520  3.02%   288   23s
   149    23   52.11986   10    1   52.66302   51.63701  1.95%   250   31s

Cutting planes:
  Gomory: 6
  Implied bound: 29
  MIR: 528
  Relax-and-lift: 1

Explored 179 nodes (44896 simplex iterations) in 32.00 seconds (36.24 work units)
Thread count was 36 (of 36 available processors)

Solution count 6: 52.663 53.8639 53.9163 ... 59.0661

Optimal solution found (tolerance 1.00e-02)
Best objective 5.266301998624e+01, best bound 5.214321964422e+01, gap 0.9870%

Gurobi 9.5.0 (linux64) logging started Sat Nov  4 17:02:45 2023

Set parameter LogFile to value "/lustre1/scratch/348/vsc34888/JointResearch/05.Models/06.Benchmarking/D.Representative_days_based_on_RES_and_Demand/RTS24_ByStages_nc90/openStarNet_RTS24_ByStages_nc90.log"
Set parameter Method to value 2
Set parameter MIPFocus to value 1
Set parameter Presolve to value 2
Set parameter RINS to value 100
Set parameter MIPGap to value 0.01
Set parameter Threads to value 36
Set parameter TimeLimit to value 604800
Set parameter IterationLimit to value 760000000
No parameters matching 'relax_integrality' found
Gurobi Optimizer version 9.5.0 build v9.5.0rc5 (linux64)
Thread count: 36 physical cores, 36 logical processors, using up to 36 threads
Optimize a model with 42048 rows, 23654 columns and 96616 nonzeros
Model fingerprint: 0xcf5d6632
Coefficient statistics:
  Matrix range     [1e-03, 2e+03]
  Objective range  [1e+00, 1e+00]
  Bounds range     [4e-04, 3e+00]
  RHS range        [4e-04, 1e+01]
Presolve removed 34048 rows and 11755 columns
Presolve time: 0.04s
Presolved: 8000 rows, 12079 columns, 28889 nonzeros

Ordering time: 0.00s

Barrier statistics:
 AA' NZ     : 1.894e+04
 Factor NZ  : 8.308e+04 (roughly 7 MB of memory)
 Factor Ops : 1.217e+06 (less than 1 second per iteration)
 Threads    : 36

                  Objective                Residual
Iter       Primal          Dual         Primal    Dual     Compl     Time
   0   1.16651398e+06 -5.54776041e+08  2.55e+00 5.65e+02  5.03e+04     0s
   1   1.00611611e+05 -8.13495589e+07  1.94e-01 4.68e-11  4.99e+03     0s
   2   4.46689623e+04 -8.70844198e+06  5.27e-02 4.83e-11  5.09e+02     0s
   3   2.56121526e+04 -9.66657900e+05  2.57e-03 4.37e-11  4.92e+01     0s
   4   1.59323860e+04 -1.10020716e+05  4.22e-04 2.01e-10  6.15e+00     0s
   5   5.66055269e+03 -2.75878331e+04  9.60e-05 7.02e-11  1.62e+00     0s
   6   1.14395864e+03 -6.97482409e+03  1.26e-05 1.48e-11  3.95e-01     0s
   7   3.55950401e+02 -1.78079511e+03  1.84e-06 7.28e-12  1.04e-01     0s
   8   2.12397987e+02 -5.27575458e+02  6.39e-07 7.28e-12  3.60e-02     0s
   9   1.11431280e+02 -2.05492398e+02  1.07e-07 7.28e-12  1.54e-02     0s
  10   7.70013003e+01 -3.32885861e+00  2.90e-08 7.28e-12  3.91e-03     0s
  11   6.18394429e+01  2.96335731e+01  9.05e-09 7.28e-12  1.57e-03     0s
  12   5.67381946e+01  4.27236219e+01  3.72e-09 1.46e-11  6.81e-04     0s
  13   5.47736037e+01  4.82423252e+01  1.84e-09 7.28e-12  3.18e-04     0s
  14   5.36975440e+01  5.05557284e+01  8.80e-10 7.28e-12  1.53e-04     0s
  15   5.31352889e+01  5.18656045e+01  3.88e-10 7.28e-12  6.17e-05     0s
  16   5.28130723e+01  5.25110416e+01  1.18e-10 1.46e-11  1.47e-05     0s
  17   5.26916441e+01  5.26104248e+01  2.71e-11 7.28e-12  3.95e-06     0s
  18   5.26636247e+01  5.26605024e+01  3.53e-10 1.46e-11  1.52e-07     0s
  19   5.26630274e+01  5.26629975e+01  8.46e-10 7.28e-12  1.46e-09     0s
  20   5.26630200e+01  5.26630200e+01  9.11e-11 7.28e-12  1.46e-12     0s
  21   5.26630200e+01  5.26630200e+01  7.36e-11 7.28e-12  1.76e-17     0s

Barrier solved model in 21 iterations and 0.18 seconds (0.12 work units)
Optimal objective 5.26630200e+01

Crossover log...

    1145 DPushes remaining with DInf 0.0000000e+00                 0s
       0 DPushes remaining with DInf 0.0000000e+00                 0s

     426 PPushes remaining with PInf 0.0000000e+00                 0s
       0 PPushes remaining with PInf 0.0000000e+00                 0s

  Push phase complete: Pinf 0.0000000e+00, Dinf 1.0649025e-12      0s

Iteration    Objective       Primal Inf.    Dual Inf.      Time
     548    5.2663020e+01   0.000000e+00   0.000000e+00      0s

Use crossover to convert LP symmetric solution to basic solution...
Crossover log...

       0 DPushes remaining with DInf 0.0000000e+00                 0s

     290 PPushes remaining with PInf 0.0000000e+00                 0s
       0 PPushes remaining with PInf 0.0000000e+00                 0s

  Push phase complete: Pinf 0.0000000e+00, Dinf 1.0995145e-12      0s

Iteration    Objective       Primal Inf.    Dual Inf.      Time
     881    5.2663020e+01   0.000000e+00   0.000000e+00      0s

Solved in 881 iterations and 0.27 seconds (0.16 work units)
Optimal objective  5.266301999e+01
